86
22
0 24 26 27 28 29 30 31 35 36 37 38 39 41 43 44 47 48 49 50 53 57 59 63 67 68 74 75 77 82 85
1 23 24 26 29 30 31 33 35 36 37 40 41 44 46 47 48 51 53 59 60 61 63 67 68 72 74 75 78 79 81 82
2 23 24 25 28 29 33 36 37 38 39 40 42 44 48 49 50 51 53 57 59 61 67 71 75 77 79 81
3 22 23 25 26 27 28 31 33 35 36 37 38 39 45 47 48 49 50 51 52 53 57 59 63 65 66 67 68 75 77 80 81
4 22 23 25 26 28 29 33 36 37 38 39 44 47 48 49 50 51 53 59 63 64 66 67 75 80 81 82 83 84
5 22 23 24 26 27 28 30 35 36 37 39 40 42 44 47 48 49 50 51 52 53 54 55 59 61 63 67 68 75 77 78 81
6 23 24 25 28 29 31 33 35 37 38 39 40 42 44 46 47 48 51 52 53 54 58 59 61 64 66 68 75 77 78 79 81 84 85
7 22 23 24 25 27 28 29 31 33 36 37 38 43 48 51 57 59 63 65 66 67 70 75 76 77 78 80
8 22 23 24 25 26 27 29 30 31 33 34 35 37 38 40 47 48 50 52 54 59 67 74 75 77 79 80 81
9 22 23 24 28 29 30 31 33 34 36 37 40 41 43 47 48 53 55 57 60 63 65 66 72 77 80 81
10 25 27 28 30 31 33 35 37 38 42 43 44 52 53 59 65 66 70 71 75 77 78 83 84
11 22 26 28 31 34 36 38 41 42 44 47 50 51 52 53 57 59 67 68 72 79 81 84 85
12 23 24 25 27 29 30 33 35 38 39 40 41 44 49 51 52 53 60 61 63 67 68 69 79 81 84
13 22 23 27 28 31 37 41 47 49 51 57 61 62 63 67 68 78 81 82 84 85
14 25 34 35 36 39 46 47 48 49 52 57 63 67 68 70 72 75 77 81 83 84 85
15 23 26 27 30 31 33 35 40 41 43 45 50 53 56 62 65
16 22 41 47 53 55 80 82 84
17 24 25 30 37 46 49 50 61 63 64 66 67 71 75 82 83
18 22 26 31 49 55 57 63 65 72 73
19 24 26 28 60 65 74 79 85
20 29 39 48 50 72 75 80 85
21 32 51 62 71
